language Essence 1.3
letting nnodes be 10
letting nrings be 6
letting capacity be 5
letting demand be {{1, 2},
{1, 4},
{1, 5},
{1, 6},
{1, 10},
{2, 4},
{2, 10},
{3, 5},
{3, 6},
{3, 8},
{4, 5},
{4, 9},
{5, 6},
{5, 8},
{5, 10}}
